17	4	3
14	9	8	13	12	27	13	
0	0	0	0	0	10	2	2	1	1	1	3	2	3	4
2	6	0	0	0	6	7	6	5	1	10	2	5	17
6	0	0	1	0	5	5	3	9	1	7	2	8	14
4	0	4	0	0	3	10	2	7	5	8	3	6	7	9
1	10	0	0	0	2	9	4	3	8	4	2	11	17
125	0	0	2	0	4	8	5	6	9	6	1	16
225	1	0	0	0	6	5	2	2	9	3	3	10	11	16
50	0	0	3	0	1	4	7	3	2	8	2	12	17
150	0	8	0	0	10	5	7	1	1	2	2	13	17
50	0	0	0	5	8	3	10	2	6	8	2	17	17
25	3	0	0	0	6	9	6	1	4	4	2	15	17
250	0	0	0	3	6	10	8	8	1	7	2	13	17
4	3	0	0	0	10	2	10	7	5	1	1	17
10	0	1	0	0	4	5	6	10	6	6	1	17
5	0	0	6	0	1	4	9	1	5	4	1	17
3	0	0	1	0	8	10	2	3	10	6	2	17	17
0	0	0	0	0	6	6	6	4	4	7	0
